RT is False
Default write of storage_offers_DA.csv just to have a file (but constraint should be inactive)
Reading model...
...model read.
creating competitive generators file...
...competitive generators recorded.
Loading data...
.. day-ahead data with real-time VRE data read.
Compiling instance...
...instance created.
Creating Offer Mitigation (model will solve as dispatch if TRUE)...
NOTE: storage offers will not be mitigated
...storage offer mitigation file created
Converting model to MPEC...
...converted
NOTE: initial MIP solve with only storage competitive to get feasible solution
Solving...

Welcome to IBM(R) ILOG(R) CPLEX(R) Interactive Optimizer 12.9.0.0
  with Simplex, Mixed Integer & Barrier Optimizers
5725-A06 5725-A29 5724-Y48 5724-Y49 5724-Y54 5724-Y55 5655-Y21
Copyright IBM Corp. 1988, 2019.  All Rights Reserved.

Type 'help' for a list of available commands.
Type 'help' followed by a command name for more
information on commands.

CPLEX> Logfile 'cplex.log' closed.
Logfile 'C:\Users\llavin\Desktop\test919\logs\tmpab47p8iq.cplex.log' open.
CPLEX> New value for parallel optimization mode: -1
CPLEX> New value for mixed integer optimality gap tolerance: 0.01
CPLEX> New value for integrality tolerance: 1e-09
CPLEX> New value for feasibility tolerance: 0.01
CPLEX> New value for deterministic time limit in ticks: 75000
CPLEX> Problem 'C:\Users\llavin\Desktop\test919\logs\tmptdq2z7h1.pyomo.lp' read.
Read time = 0.23 sec. (14.73 ticks)
CPLEX> Problem name         : C:\Users\llavin\Desktop\test919\logs\tmptdq2z7h1.pyomo.lp
Objective sense      : Maximize
Variables            :   53805  [Nneg: 1,  Box: 22000,  Free: 4464,
                                 Binary: 27340]
Objective nonzeros   :    9029
Linear constraints   :  123205  [Less: 41346,  Greater: 59096,  Equal: 22763]
  Nonzeros           :  291753
  RHS nonzeros       :   67491

Variables            : Min LB: -5000.000        Max UB: 1000000.       
Objective nonzeros   : Min   : 0.01666667       Max   : 2500.000       
Linear constraints   :
  Nonzeros           : Min   : 0.01666667       Max   : 1000000.       
  RHS nonzeros       : Min   : 0.01666667       Max   : 1000000.       
CPLEX> CPXPARAM_Parallel                                -1
CPXPARAM_Simplex_Tolerances_Feasibility          0.01
CPXPARAM_DetTimeLimit                            75000
CPXPARAM_MIP_Tolerances_MIPGap                   0.01
CPXPARAM_MIP_Tolerances_Integrality              1.0000000000000001e-09
Tried aggregator 3 times.
MIP Presolve eliminated 88645 rows and 18971 columns.
MIP Presolve added 3374 rows and 0 columns.
MIP Presolve modified 24874 coefficients.
Aggregator did 12982 substitutions.
Reduced MIP has 24952 rows, 21298 columns, and 71169 nonzeros.
Reduced MIP has 8420 binaries, 0 generals, 0 SOSs, and 0 indicators.
Presolve time = 0.30 sec. (173.65 ticks)
Probing fixed 378 vars, tightened 2852 bounds.
Probing time = 1.19 sec. (874.38 ticks)
Tried aggregator 2 times.
MIP Presolve eliminated 860 rows and 765 columns.
MIP Presolve modified 2213 coefficients.
Aggregator did 42 substitutions.
Reduced MIP has 24050 rows, 20491 columns, and 68553 nonzeros.
Reduced MIP has 8038 binaries, 0 generals, 0 SOSs, and 0 indicators.
Presolve time = 0.11 sec. (69.80 ticks)
Probing time = 0.05 sec. (16.19 ticks)
Clique table members: 6305.
MIP emphasis: balance optimality and feasibility.
MIP search method: dynamic search.
Parallel mode: opportunistic, using up to 32 threads.
Root relaxation solution time = 0.31 sec. (247.17 ticks)

        Nodes                                         Cuts/
   Node  Left     Objective  IInf  Best Integer    Best Bound    ItCnt     Gap

      0     0        0.0000  1607                      0.0000     5645         
*     0+    0                            0.0000        0.0000             0.00%
      0     0        cutoff              0.0000        0.0000     5645    0.00%
Elapsed time = 3.80 sec. (2768.07 ticks, tree = 0.01 MB, solutions = 1)

Root node processing (before b&c):
  Real time             =    3.81 sec. (2769.90 ticks)
Parallel b&c, 32 threads:
  Real time             =    0.00 sec. (0.00 ticks)
  Sync time (average)   =    0.00 sec.
  Wait time (average)   =    0.00 sec.
                          ------------
Total (root+branch&cut) =    3.81 sec. (2769.90 ticks)

Solution pool: 1 solution saved.

MIP - Integer optimal solution:  Objective =  1.0986695997e-09
Solution time =    3.83 sec.  Iterations = 5645  Nodes = 0
Deterministic time = 2770.05 ticks  (723.63 ticks/sec)

CPLEX> Incumbent solution written to file 'C:\Users\llavin\Desktop\test919\logs\tmpufh3hq_6.cplex.sol'.
CPLEX> NOTE: no warmstart specified for MIP iteration, default behavior is true
NOTE: resolving with all competitive generators using storage-only solution to warmstart
Solving...

Welcome to IBM(R) ILOG(R) CPLEX(R) Interactive Optimizer 12.9.0.0
  with Simplex, Mixed Integer & Barrier Optimizers
5725-A06 5725-A29 5724-Y48 5724-Y49 5724-Y54 5724-Y55 5655-Y21
Copyright IBM Corp. 1988, 2019.  All Rights Reserved.

Type 'help' for a list of available commands.
Type 'help' followed by a command name for more
information on commands.

CPLEX> Logfile 'cplex.log' closed.
Logfile 'C:\Users\llavin\Desktop\test919\logs\tmpcf3hft5r.cplex.log' open.
CPLEX> New value for parallel optimization mode: -1
CPLEX> New value for mixed integer optimality gap tolerance: 0.01
CPLEX> New value for integrality tolerance: 1e-09
CPLEX> New value for feasibility tolerance: 0.01
CPLEX> New value for deterministic time limit in ticks: 75000
CPLEX> Problem 'C:\Users\llavin\Desktop\test919\logs\tmpgf9232h7.pyomo.lp' read.
Read time = 0.23 sec. (14.75 ticks)
CPLEX> MIP start file 'C:\Users\llavin\Desktop\test919\logs\tmp4i2rhn6z.cplex.mst' read.
CPLEX> Problem name         : C:\Users\llavin\Desktop\test919\logs\tmpgf9232h7.pyomo.lp
Objective sense      : Maximize
Variables            :   54525  [Nneg: 1,  Box: 22720,  Free: 4464,
                                 Binary: 27340]
Objective nonzeros   :    9725
Linear constraints   :  123205  [Less: 41346,  Greater: 59096,  Equal: 22763]
  Nonzeros           :  291753
  RHS nonzeros       :   67491

Variables            : Min LB: -5000.000        Max UB: 1000000.       
Objective nonzeros   : Min   : 0.01666667       Max   : 2500.000       
Linear constraints   :
  Nonzeros           : Min   : 0.01666667       Max   : 1000000.       
  RHS nonzeros       : Min   : 0.01666667       Max   : 1000000.       
CPLEX> CPXPARAM_Parallel                                -1
CPXPARAM_Simplex_Tolerances_Feasibility          0.01
CPXPARAM_DetTimeLimit                            75000
CPXPARAM_MIP_Tolerances_MIPGap                   0.01
CPXPARAM_MIP_Tolerances_Integrality              1.0000000000000001e-09
Warning:  No solution found from 1 MIP starts.
Retaining values of one MIP start for possible repair.
Tried aggregator 3 times.
MIP Presolve eliminated 88645 rows and 19691 columns.
MIP Presolve added 3374 rows and 0 columns.
MIP Presolve modified 24874 coefficients.
Aggregator did 12982 substitutions.
Reduced MIP has 24952 rows, 21298 columns, and 71169 nonzeros.
Reduced MIP has 8420 binaries, 0 generals, 0 SOSs, and 0 indicators.
Presolve time = 0.30 sec. (174.01 ticks)
Probing fixed 378 vars, tightened 2852 bounds.
Probing time = 1.19 sec. (874.38 ticks)
Tried aggregator 2 times.
MIP Presolve eliminated 860 rows and 765 columns.
MIP Presolve modified 2213 coefficients.
Aggregator did 42 substitutions.
Reduced MIP has 24050 rows, 20491 columns, and 68553 nonzeros.
Reduced MIP has 8038 binaries, 0 generals, 0 SOSs, and 0 indicators.
Presolve time = 0.11 sec. (69.81 ticks)
Probing time = 0.05 sec. (16.19 ticks)
Clique table members: 6305.
MIP emphasis: balance optimality and feasibility.
MIP search method: dynamic search.
Parallel mode: opportunistic, using up to 32 threads.
Root relaxation solution time = 0.33 sec. (251.51 ticks)

        Nodes                                         Cuts/
   Node  Left     Objective  IInf  Best Integer    Best Bound    ItCnt     Gap

      0     0   150042.3129  1710                 150042.3129     5532         
      0     0   145952.3188   581                   Cuts: 836     5954         
      0     0   145101.5799   468                   Cuts: 358     6088         
      0     0   144961.8429   469                   Cuts: 116     6164         
      0     0   144960.5751   442                   Cuts: 106     6246         
      0     0   144939.1509   414                    Cuts: 80     6287         
      0     0   144939.1509   405                    Cuts: 64     6300         
      0     0   144934.6902   402                    Cuts: 81     6315         
      0     0   144934.6902   386                    Cuts: 55     6326         
      0     0   138172.1065   389                    Cuts: 62     6432         
      0     0   138138.4351   393                    Cuts: 68     6448         
      0     0   138135.7204   394                    Cuts: 72     6456         
Repair heuristic found nothing.
      0     3   119990.7551   377                    Cuts: 31     6513         
Elapsed time = 11.30 sec. (6486.85 ticks, tree = 0.02 MB, solutions = 0)
    323    37    94504.3133   324                  97445.3788     7950         
    605   162    56472.7078   275                  96054.9637    22973         
   1014   174    63311.8778   266                  96054.9637    26337         
   1624   794    32795.1468   231                  96054.9637    74608         
   2248   715    14445.8837   197                  96054.9637    68772         
   2908  1232     9870.1982   189                  96054.9637    89240         
   3541  1210    36169.0818   216                  96054.9637    88783         
   4204  2253     5522.8256   136                  96054.9637   102107         
   4995  2334      844.3535   170                  96054.9637   102210         
*  5403+ 3005                         7195.8297    96054.9637              --- 
Elapsed time = 23.91 sec. (8733.41 ticks, tree = 23.44 MB, solutions = 2)
*  8416  1932      integral     0    22440.7314    96054.9637   109474  328.04%
   8857  2103    46934.8708   275    22440.7314    94992.8324   110687  323.31%
   9122  1846        cutoff          22440.7314    32025.7865   127232   42.71%

Clique cuts applied:  1
Cover cuts applied:  13
Implied bound cuts applied:  3
Flow cuts applied:  291
Mixed integer rounding cuts applied:  29
Gomory fractional cuts applied:  61

Root node processing (before b&c):
  Real time             =    9.65 sec. (6473.77 ticks)
Parallel b&c, 32 threads:
  Real time             =   29.64 sec. (9755.93 ticks)
  Sync time (average)   =    2.20 sec.
  Wait time (average)   =    0.26 sec.
                          ------------
Total (root+branch&cut) =   39.30 sec. (16229.71 ticks)

Solution pool: 7 solutions saved.

MIP - Integer optimal solution:  Objective =  2.2440731433e+04
Solution time =   39.33 sec.  Iterations = 127534  Nodes = 9143
Deterministic time = 16229.86 ticks  (412.68 ticks/sec)

CPLEX> Incumbent solution written to file 'C:\Users\llavin\Desktop\test919\logs\tmpzb7gjkul.cplex.sol'.
CPLEX> Exporting results... 
